unsat
(:max-memory          18.02
 :memory              17.89
 :nlsat-conflicts     3
 :nlsat-learned-added 2
 :nlsat-propagations  9
 :nlsat-stages        3
 :num-allocs          5174
 :rlimit-count        1046
 :time                0.00
 :total-time          0.01)
